\ENCODING=ISO-8859-1
\Problem name: IloCplex

Maximize
 obj: 753 vnp1 - (π,ρ)0↑e1 - 20 (π,ρ)1↑e2
      - 3 (π,ρ)2↑e3 - 3 (π,ρ)3↑e3
      - 3 (π,ρ)4↑e3 - 37 (π,ρ)5↑e3
      - 37 (π,ρ)6↑e3 - 41 (π,ρ)7↑e3
      - 41 (π,ρ)8↑e3 - 41 (π,ρ)9↑e3
      - 33 (π,ρ)10↑e3 - 33 (π,ρ)11↑e3
      - 33 (π,ρ)12↑e3 + 715 vnp2 - 18 (π,ρ)13↑e4
      - 102 (π,ρ)14↑e5 - 102 (π,ρ)15↑e5
      - 9 (π,ρ)16↑e6 - 48 (π,ρ)17↑e7
      - 48 (π,ρ)18↑e7 - 70 (π,ρ)19↑e7
      - 70 (π,ρ)20↑e7 - 66 (π,ρ)21↑e7
      - 66 (π,ρ)22↑e7 - 66 (π,ρ)23↑e7
      - 16 (π,ρ)24↑e7 - 16 (π,ρ)25↑e7
      - 16 (π,ρ)26↑e7 - 16 (π,ρ)27↑e7 + 790 vnp3
      - 16 (π,ρ)28↑e8 - 58 (π,ρ)29↑e9
      - 66 (π,ρ)30↑e9 - 14 (π,ρ)31↑e9
      - 14 (π,ρ)32↑e9 - 14 (π,ρ)33↑e9
      - 14 (π,ρ)34↑e9 - 82 (π,ρ)35↑e9
      - 9 (π,ρ)36↑e10 - 9 (π,ρ)37↑e10
      - 111 (π,ρ)38↑e10 - 111 (π,ρ)39↑e10
      - 123 (π,ρ)40↑e10 - 123 (π,ρ)41↑e10
Subject To
 _EmbdConstr_vnp1e1#0:   vnp1 - (π,ρ)0↑e1  = 0
 _EmbdConstr_vnp1e2#1:   vnp1 - (π,ρ)1↑e2  = 0
 _EmbdConstr_vnp1e3#2:   vnp1 - (π,ρ)2↑e3 - (π,ρ)3↑e3
                         - (π,ρ)4↑e3 - (π,ρ)5↑e3
                         - (π,ρ)6↑e3 - (π,ρ)7↑e3
                         - (π,ρ)8↑e3 - (π,ρ)9↑e3
                         - (π,ρ)10↑e3 - (π,ρ)11↑e3
                         - (π,ρ)12↑e3  = 0
 _EmbdConstr_vnp2e4#3:   vnp2 - (π,ρ)13↑e4  = 0
 _EmbdConstr_vnp2e5#4:   vnp2 - (π,ρ)14↑e5 - (π,ρ)15↑e5
                          = 0
 _EmbdConstr_vnp2e6#5:   vnp2 - (π,ρ)16↑e6  = 0
 _EmbdConstr_vnp2e7#6:   vnp2 - (π,ρ)17↑e7 - (π,ρ)18↑e7
                         - (π,ρ)19↑e7 - (π,ρ)20↑e7
                         - (π,ρ)21↑e7 - (π,ρ)22↑e7
                         - (π,ρ)23↑e7 - (π,ρ)24↑e7
                         - (π,ρ)25↑e7 - (π,ρ)26↑e7
                         - (π,ρ)27↑e7  = 0
 _EmbdConstr_vnp3e8#7:   vnp3 - (π,ρ)28↑e8  = 0
 _EmbdConstr_vnp3e9#8:   vnp3 - (π,ρ)29↑e9 - (π,ρ)30↑e9
                         - (π,ρ)31↑e9 - (π,ρ)32↑e9
                         - (π,ρ)33↑e9 - (π,ρ)34↑e9
                         - (π,ρ)35↑e9  = 0
 _EmbdConstr_vnp3e10#9:  vnp3 - (π,ρ)36↑e10 - (π,ρ)37↑e10
                         - (π,ρ)38↑e10 - (π,ρ)39↑e10
                         - (π,ρ)40↑e10 - (π,ρ)41↑e10  = 0
 BwCapConstr_slink1#10:  (π,ρ)7↑e3 + (π,ρ)8↑e3
                         + (π,ρ)9↑e3 + 3 (π,ρ)40↑e10
                         + 3 (π,ρ)41↑e10 <= 20
 BwCapConstr_slink2#11:  (π,ρ)7↑e3 + (π,ρ)8↑e3
                         + (π,ρ)9↑e3 + 3 (π,ρ)40↑e10
                         + 3 (π,ρ)41↑e10 <= 20
 BwCapConstr_slink3#12:  <= 9
 BwCapConstr_slink5#13:  (π,ρ)0↑e1 + (π,ρ)2↑e3
                         + (π,ρ)3↑e3 + (π,ρ)4↑e3
                         + 2 (π,ρ)31↑e9 + 2 (π,ρ)32↑e9
                         + 2 (π,ρ)33↑e9 + 2 (π,ρ)34↑e9
                         + 3 (π,ρ)36↑e10 + 3 (π,ρ)37↑e10
                         <= 15
 BwCapConstr_slink6#14:  (π,ρ)5↑e3 + (π,ρ)6↑e3
                         + 2 (π,ρ)35↑e9 + 3 (π,ρ)38↑e10
                         + 3 (π,ρ)39↑e10 <= 8
 BwCapConstr_slink7#15:  2 (π,ρ)24↑e7 + 2 (π,ρ)25↑e7
                         + 2 (π,ρ)26↑e7 + 2 (π,ρ)27↑e7
                         <= 16
 BwCapConstr_slink8#16:  5 (π,ρ)1↑e2 + (π,ρ)2↑e3
                         + (π,ρ)3↑e3 + (π,ρ)4↑e3
                         + (π,ρ)7↑e3 + (π,ρ)8↑e3
                         + (π,ρ)9↑e3 + 2 (π,ρ)24↑e7
                         + 2 (π,ρ)25↑e7 + 2 (π,ρ)26↑e7
                         + 2 (π,ρ)27↑e7 + 2 (π,ρ)31↑e9
                         + 2 (π,ρ)32↑e9 + 2 (π,ρ)33↑e9
                         + 2 (π,ρ)34↑e9 + 3 (π,ρ)36↑e10
                         + 3 (π,ρ)37↑e10 + 3 (π,ρ)40↑e10
                         + 3 (π,ρ)41↑e10 <= 8
 BwCapConstr_slink9#17:  (π,ρ)5↑e3 + (π,ρ)6↑e3
                         + (π,ρ)10↑e3 + (π,ρ)11↑e3
                         + (π,ρ)12↑e3 + 3 (π,ρ)14↑e5
                         + 3 (π,ρ)15↑e5 + 2 (π,ρ)17↑e7
                         + 2 (π,ρ)18↑e7 + 2 (π,ρ)19↑e7
                         + 2 (π,ρ)20↑e7 + 2 (π,ρ)29↑e9
                         + 2 (π,ρ)35↑e9 + 3 (π,ρ)38↑e10
                         + 3 (π,ρ)39↑e10 <= 13
 BwCapConstr_slink10#18: 2 (π,ρ)13↑e4 + 3 (π,ρ)14↑e5
                         + 3 (π,ρ)15↑e5 <= 20
 BwCapConstr_slink11#19: <= 9
 BwCapConstr_slink12#20: 2 (π,ρ)21↑e7 + 2 (π,ρ)22↑e7
                         + 2 (π,ρ)23↑e7 <= 10
 BwCapConstr_slink13#21: (π,ρ)10↑e3 + (π,ρ)11↑e3
                         + (π,ρ)12↑e3 + 3 (π,ρ)14↑e5
                         + 3 (π,ρ)15↑e5 + (π,ρ)16↑e6
                         + 2 (π,ρ)29↑e9 <= 15
 BwCapConstr_slink14#22: (π,ρ)10↑e3 + (π,ρ)11↑e3
                         + (π,ρ)12↑e3 + 4 (π,ρ)28↑e8
                         + 2 (π,ρ)31↑e9 + 2 (π,ρ)32↑e9
                         + 2 (π,ρ)33↑e9 + 2 (π,ρ)34↑e9
                         + 2 (π,ρ)35↑e9 <= 15
 BwCapConstr_slink15#23: <= 8
 BwCapConstr_slink16#24: <= 17
 BwCapConstr_slink18#25: <= 12
 BwCapConstr_slink19#26: <= 1
 BwCapConstr_slink20#27: 2 (π,ρ)30↑e9 <= 13
 BwCapConstr_slink21#28: <= 4
 BwCapConstr_slink22#29: 2 (π,ρ)21↑e7 + 2 (π,ρ)22↑e7
                         + 2 (π,ρ)23↑e7 + 2 (π,ρ)30↑e9
                         <= 1
 BwCapConstr_slink24#30: <= 13
 BwCapConstr_slink25#31: 5 (π,ρ)1↑e2 + 2 (π,ρ)13↑e4
                         + 2 (π,ρ)17↑e7 + 2 (π,ρ)18↑e7
                         + 2 (π,ρ)21↑e7 + 2 (π,ρ)22↑e7
                         + 2 (π,ρ)23↑e7 + 2 (π,ρ)24↑e7
                         + 2 (π,ρ)25↑e7 + 2 (π,ρ)26↑e7
                         + 2 (π,ρ)27↑e7 <= 15
 BwCapConstr_slink26#32: 2 (π,ρ)19↑e7 + 2 (π,ρ)20↑e7
                         <= 10
 BwCapConstr_slink27#33: 2 (π,ρ)19↑e7 + 2 (π,ρ)20↑e7
                         <= 13
 BwCapConstr_slink28#34: <= 11
 BwCapConstr_slink31#35: <= 11
 BwCapConstr_slink32#36: <= 8
 BwCapConstr_slink37#37: <= 13
 BwCapConstr_slink40#38: <= 10
 BwCapConstr_slink42#39: <= 14
Bounds
 0 <= vnp1 <= 1
 0 <= (π,ρ)0↑e1 <= 1
 0 <= (π,ρ)1↑e2 <= 1
 0 <= (π,ρ)2↑e3 <= 1
 0 <= (π,ρ)3↑e3 <= 1
 0 <= (π,ρ)4↑e3 <= 1
 0 <= (π,ρ)5↑e3 <= 1
 0 <= (π,ρ)6↑e3 <= 1
 0 <= (π,ρ)7↑e3 <= 1
 0 <= (π,ρ)8↑e3 <= 1
 0 <= (π,ρ)9↑e3 <= 1
 0 <= (π,ρ)10↑e3 <= 1
 0 <= (π,ρ)11↑e3 <= 1
 0 <= (π,ρ)12↑e3 <= 1
 0 <= vnp2 <= 1
 0 <= (π,ρ)13↑e4 <= 1
 0 <= (π,ρ)14↑e5 <= 1
 0 <= (π,ρ)15↑e5 <= 1
 0 <= (π,ρ)16↑e6 <= 1
 0 <= (π,ρ)17↑e7 <= 1
 0 <= (π,ρ)18↑e7 <= 1
 0 <= (π,ρ)19↑e7 <= 1
 0 <= (π,ρ)20↑e7 <= 1
 0 <= (π,ρ)21↑e7 <= 1
 0 <= (π,ρ)22↑e7 <= 1
 0 <= (π,ρ)23↑e7 <= 1
 0 <= (π,ρ)24↑e7 <= 1
 0 <= (π,ρ)25↑e7 <= 1
 0 <= (π,ρ)26↑e7 <= 1
 0 <= (π,ρ)27↑e7 <= 1
 0 <= vnp3 <= 1
 0 <= (π,ρ)28↑e8 <= 1
 0 <= (π,ρ)29↑e9 <= 1
 0 <= (π,ρ)30↑e9 <= 1
 0 <= (π,ρ)31↑e9 <= 1
 0 <= (π,ρ)32↑e9 <= 1
 0 <= (π,ρ)33↑e9 <= 1
 0 <= (π,ρ)34↑e9 <= 1
 0 <= (π,ρ)35↑e9 <= 1
 0 <= (π,ρ)36↑e10 <= 1
 0 <= (π,ρ)37↑e10 <= 1
 0 <= (π,ρ)38↑e10 <= 1
 0 <= (π,ρ)39↑e10 <= 1
 0 <= (π,ρ)40↑e10 <= 1
 0 <= (π,ρ)41↑e10 <= 1
Binaries
 vnp1  (π,ρ)0↑e1  (π,ρ)1↑e2  (π,ρ)2↑e3 
 (π,ρ)3↑e3  (π,ρ)4↑e3  (π,ρ)5↑e3 
 (π,ρ)6↑e3  (π,ρ)7↑e3  (π,ρ)8↑e3 
 (π,ρ)9↑e3  (π,ρ)10↑e3  (π,ρ)11↑e3 
 (π,ρ)12↑e3  vnp2  (π,ρ)13↑e4  (π,ρ)14↑e5 
 (π,ρ)15↑e5  (π,ρ)16↑e6  (π,ρ)17↑e7 
 (π,ρ)18↑e7  (π,ρ)19↑e7  (π,ρ)20↑e7 
 (π,ρ)21↑e7  (π,ρ)22↑e7  (π,ρ)23↑e7 
 (π,ρ)24↑e7  (π,ρ)25↑e7  (π,ρ)26↑e7 
 (π,ρ)27↑e7  vnp3  (π,ρ)28↑e8  (π,ρ)29↑e9 
 (π,ρ)30↑e9  (π,ρ)31↑e9  (π,ρ)32↑e9 
 (π,ρ)33↑e9  (π,ρ)34↑e9  (π,ρ)35↑e9 
 (π,ρ)36↑e10  (π,ρ)37↑e10  (π,ρ)38↑e10 
 (π,ρ)39↑e10  (π,ρ)40↑e10  (π,ρ)41↑e10 
End
